CLT01
Position Depot: Center
Horizon for Depot: Large
Position of customers: Cluster
Distribution of the demand: Small
Width of time windows: Tight
Distribution of the service: Small

VEHICLE 
NUMBER 	 CAPACITY 
 14 	 	 51 
 
CUSTOMER
CUST NO. 	 XCOORD.  	 YCOORD. 	 DEMAND 	 READY TIME 	 DUE DATE 	 SERVICE TIME 
 0 	 	 500 	 	 500 	 	 0 	 	 0 	 	 3818 	 	 0 
  1 	 	 256 	 	 414 	 	 7 	 	 267 	 	 334 	 	 76 
  2 	 	 161 	 	 745 	 	 10 	 	 2003 	 	 2181 	 	 84 
  3 	 	 332 	 	 319 	 	 10 	 	 203 	 	 322 	 	 97 
  4 	 	 124 	 	 490 	 	 5 	 	 1648 	 	 1790 	 	 52 
  5 	 	 373 	 	 474 	 	 9 	 	 305 	 	 504 	 	 87 
  6 	 	 321 	 	 424 	 	 8 	 	 693 	 	 835 	 	 62 
  7 	 	 252 	 	 334 	 	 7 	 	 2460 	 	 2660 	 	 78 
  8 	 	 73 	 	 495 	 	 6 	 	 807 	 	 985 	 	 100 
  9 	 	 199 	 	 468 	 	 7 	 	 1016 	 	 1186 	 	 66 
  10 	 	 315 	 	 343 	 	 5 	 	 2531 	 	 2599 	 	 99 
  11 	 	 242 	 	 413 	 	 5 	 	 3657 	 	 3791 	 	 76 
  12 	 	 100 	 	 495 	 	 9 	 	 2690 	 	 2808 	 	 73 
  13 	 	 123 	 	 535 	 	 7 	 	 1616 	 	 1769 	 	 94 
  14 	 	 83 	 	 507 	 	 10 	 	 532 	 	 695 	 	 74 
  15 	 	 219 	 	 389 	 	 7 	 	 663 	 	 762 	 	 99 
  16 	 	 507 	 	 318 	 	 7 	 	 2688 	 	 2876 	 	 86 
  17 	 	 369 	 	 295 	 	 9 	 	 293 	 	 351 	 	 62 
  18 	 	 286 	 	 283 	 	 8 	 	 847 	 	 943 	 	 82 
  19 	 	 109 	 	 729 	 	 6 	 	 862 	 	 993 	 	 94 
  20 	 	 63 	 	 501 	 	 8 	 	 711 	 	 893 	 	 81 
  21 	 	 312 	 	 587 	 	 10 	 	 1500 	 	 1579 	 	 93 
  22 	 	 306 	 	 382 	 	 6 	 	 3506 	 	 3630 	 	 95 
  23 	 	 387 	 	 376 	 	 7 	 	 3013 	 	 3106 	 	 55 
  24 	 	 216 	 	 304 	 	 5 	 	 2741 	 	 2824 	 	 74 
  25 	 	 158 	 	 515 	 	 9 	 	 322 	 	 376 	 	 55 
  26 	 	 396 	 	 323 	 	 9 	 	 576 	 	 649 	 	 71 
  27 	 	 378 	 	 372 	 	 9 	 	 2390 	 	 2452 	 	 65 
  28 	 	 306 	 	 240 	 	 7 	 	 2769 	 	 2899 	 	 50 
  29 	 	 325 	 	 298 	 	 6 	 	 1042 	 	 1169 	 	 97 
  30 	 	 259 	 	 307 	 	 6 	 	 1828 	 	 1927 	 	 75 
  31 	 	 273 	 	 428 	 	 6 	 	 3609 	 	 3793 	 	 71 
  32 	 	 225 	 	 208 	 	 7 	 	 579 	 	 694 	 	 69 
  33 	 	 338 	 	 540 	 	 7 	 	 1276 	 	 1397 	 	 77 
  34 	 	 312 	 	 316 	 	 8 	 	 208 	 	 315 	 	 74 
  35 	 	 373 	 	 350 	 	 8 	 	 708 	 	 832 	 	 52 
  36 	 	 161 	 	 432 	 	 10 	 	 2626 	 	 2780 	 	 58 
  37 	 	 378 	 	 554 	 	 5 	 	 2068 	 	 2220 	 	 60 
  38 	 	 201 	 	 424 	 	 5 	 	 162 	 	 339 	 	 70 
  39 	 	 139 	 	 448 	 	 6 	 	 1602 	 	 1773 	 	 77 
  40 	 	 91 	 	 640 	 	 5 	 	 467 	 	 565 	 	 76 
  41 	 	 224 	 	 447 	 	 6 	 	 1014 	 	 1145 	 	 60 
  42 	 	 54 	 	 396 	 	 7 	 	 1196 	 	 1321 	 	 87 
  43 	 	 236 	 	 230 	 	 10 	 	 1960 	 	 2120 	 	 74 
  44 	 	 103 	 	 831 	 	 6 	 	 1698 	 	 1848 	 	 64 
  45 	 	 91 	 	 767 	 	 8 	 	 1818 	 	 1926 	 	 75 
  46 	 	 356 	 	 297 	 	 7 	 	 1445 	 	 1635 	 	 97 
  47 	 	 155 	 	 405 	 	 5 	 	 3735 	 	 3795 	 	 51 
  48 	 	 146 	 	 499 	 	 7 	 	 2006 	 	 2087 	 	 70 
  49 	 	 195 	 	 469 	 	 8 	 	 2361 	 	 2446 	 	 51 
  50 	 	 227 	 	 388 	 	 7 	 	 2629 	 	 2790 	 	 54 
  51 	 	 212 	 	 526 	 	 8 	 	 2831 	 	 3018 	 	 84 
  52 	 	 130 	 	 473 	 	 10 	 	 1073 	 	 1267 	 	 77 
  53 	 	 159 	 	 746 	 	 5 	 	 682 	 	 867 	 	 99 
  54 	 	 161 	 	 743 	 	 6 	 	 546 	 	 692 	 	 61 
  55 	 	 380 	 	 328 	 	 7 	 	 1308 	 	 1487 	 	 89 
  56 	 	 364 	 	 369 	 	 10 	 	 1134 	 	 1326 	 	 65 
  57 	 	 147 	 	 475 	 	 8 	 	 1670 	 	 1811 	 	 89 
  58 	 	 194 	 	 422 	 	 10 	 	 2751 	 	 2847 	 	 80 
  59 	 	 355 	 	 352 	 	 6 	 	 499 	 	 612 	 	 96 
  60 	 	 242 	 	 679 	 	 7 	 	 3355 	 	 3488 	 	 99 
  61 	 	 125 	 	 484 	 	 10 	 	 3258 	 	 3315 	 	 90 
  62 	 	 198 	 	 693 	 	 6 	 	 1399 	 	 1473 	 	 62 
  63 	 	 66 	 	 702 	 	 6 	 	 728 	 	 846 	 	 73 
  64 	 	 221 	 	 797 	 	 8 	 	 1567 	 	 1713 	 	 93 
  65 	 	 305 	 	 497 	 	 5 	 	 2744 	 	 2871 	 	 72 
  66 	 	 128 	 	 455 	 	 9 	 	 3084 	 	 3159 	 	 59 
  67 	 	 233 	 	 293 	 	 6 	 	 3525 	 	 3644 	 	 77 
  68 	 	 79 	 	 510 	 	 5 	 	 2043 	 	 2115 	 	 50 
  69 	 	 335 	 	 116 	 	 8 	 	 1624 	 	 1789 	 	 71 
  70 	 	 246 	 	 434 	 	 8 	 	 1170 	 	 1227 	 	 67 
  71 	 	 293 	 	 256 	 	 9 	 	 183 	 	 351 	 	 85 
  72 	 	 305 	 	 339 	 	 8 	 	 1257 	 	 1413 	 	 56 
  73 	 	 79 	 	 446 	 	 8 	 	 2338 	 	 2524 	 	 96 
  74 	 	 204 	 	 397 	 	 6 	 	 1760 	 	 1812 	 	 78 
  75 	 	 319 	 	 418 	 	 9 	 	 1268 	 	 1449 	 	 98 
  76 	 	 30 	 	 765 	 	 6 	 	 441 	 	 593 	 	 50 
  77 	 	 340 	 	 312 	 	 8 	 	 2912 	 	 3050 	 	 94 
  78 	 	 387 	 	 314 	 	 6 	 	 2168 	 	 2246 	 	 50 
  79 	 	 207 	 	 424 	 	 10 	 	 2213 	 	 2303 	 	 62 
  80 	 	 215 	 	 534 	 	 10 	 	 167 	 	 315 	 	 53 
  81 	 	 260 	 	 272 	 	 8 	 	 1534 	 	 1647 	 	 76 
  82 	 	 136 	 	 691 	 	 9 	 	 888 	 	 1055 	 	 89 
  83 	 	 265 	 	 237 	 	 10 	 	 2138 	 	 2297 	 	 54 
  84 	 	 136 	 	 648 	 	 5 	 	 3432 	 	 3632 	 	 68 
  85 	 	 163 	 	 471 	 	 10 	 	 299 	 	 372 	 	 94 
  86 	 	 224 	 	 335 	 	 5 	 	 3647 	 	 3818 	 	 88 
  87 	 	 249 	 	 392 	 	 5 	 	 3635 	 	 3737 	 	 54 
  88 	 	 183 	 	 374 	 	 9 	 	 2610 	 	 2779 	 	 85 
  89 	 	 388 	 	 353 	 	 5 	 	 1805 	 	 1982 	 	 88 
  90 	 	 172 	 	 727 	 	 7 	 	 2041 	 	 2102 	 	 92 
  91 	 	 212 	 	 766 	 	 6 	 	 3561 	 	 3660 	 	 63 
  92 	 	 116 	 	 447 	 	 5 	 	 665 	 	 765 	 	 85 
  93 	 	 269 	 	 394 	 	 8 	 	 2354 	 	 2426 	 	 53 
  94 	 	 144 	 	 506 	 	 5 	 	 2905 	 	 2974 	 	 63 
  95 	 	 174 	 	 690 	 	 6 	 	 1740 	 	 1835 	 	 90 
  96 	 	 349 	 	 357 	 	 5 	 	 964 	 	 1157 	 	 66 
  97 	 	 322 	 	 321 	 	 5 	 	 2556 	 	 2661 	 	 81 
  98 	 	 296 	 	 336 	 	 5 	 	 889 	 	 1059 	 	 58 
  99 	 	 262 	 	 382 	 	 10 	 	 1155 	 	 1269 	 	 91 
  100 	 	 119 	 	 500 	 	 6 	 	 3323 	 	 3395 	 	 98 
 